p tw 29 38
1 2
1 6
2 3
2 7
3 4
3 8
4 9
5 11
6 7
6 12
7 8
7 13
8 9
9 10
9 14
10 11
11 15
12 13
12 16
13 17
14 19
15 21
16 17
17 18
18 19
19 20
19 22
20 21
20 23
21 24
22 23
22 27
23 24
23 28
24 29
26 27
27 28
28 29
